benchmark/results/graph__15-1000-0.10-03_6/error_log/graph__15-1000-0.10-03_6_Quinton_Benders_primal_sub_ERRORLOG.lp
\ This file has been generated by DOcplex
\ ENCODING=ISO-8859-1
\Problem name: Quinton Benders_primal_sub

Maximize
 obj: tau
Subject To
 c1: tau <= 0.001273885350
 c2: y_a0_proc_1 + y_a0_proc_2 - tau = 0
 c3: y_a0_proc_1 <= 0
 c4: y_a0_proc_2 <= 1
 c5: tau <= 0.000823045267
 c6: y_a1_proc_0 + y_a1_proc_1 + y_a1_proc_2 - tau = 0
 c7: y_a1_proc_0 <= 1
 c8: y_a1_proc_1 <= 0
 c9: y_a1_proc_2 <= 0
 c10: tau <= 0.000937207123
 c11: y_a2_proc_0 + y_a2_proc_1 + y_a2_proc_2 - tau = 0
 c12: y_a2_proc_0 <= 1
 c13: y_a2_proc_1 <= 0
 c14: y_a2_proc_2 <= 0
 c15: tau <= 0.001248439451
 c16: y_a3_proc_1 + y_a3_proc_2 - tau = 0
 c17: y_a3_proc_1 <= 0
 c18: y_a3_proc_2 <= 1
 c19: tau <= 0.001821493625
 c20: y_a4_proc_0 + y_a4_proc_1 + y_a4_proc_2 - tau = 0
 c21: y_a4_proc_0 <= 0
 c22: y_a4_proc_1 <= 1
 c23: y_a4_proc_2 <= 0
 c24: tau <= 0.000855431993
 c25: y_a5_proc_0 + y_a5_proc_1 - tau = 0
 c26: y_a5_proc_0 <= 1
 c27: y_a5_proc_1 <= 0
 c28: tau <= 0.001152073733
 c29: y_a6_proc_0 + y_a6_proc_1 + y_a6_proc_2 - tau = 0
 c30: y_a6_proc_0 <= 0
 c31: y_a6_proc_1 <= 0
 c32: y_a6_proc_2 <= 1
 c33: tau <= 0.000893655049
 c34: y_a7_proc_0 + y_a7_proc_1 + y_a7_proc_2 - tau = 0
 c35: y_a7_proc_0 <= 0
 c36: y_a7_proc_1 <= 0
 c37: y_a7_proc_2 <= 1
 c38: tau <= 0.001149425287
 c39: y_a8_proc_0 + y_a8_proc_1 + y_a8_proc_2 - tau = 0
 c40: y_a8_proc_0 <= 1
 c41: y_a8_proc_1 <= 0
 c42: y_a8_proc_2 <= 0
 c43: tau <= 0.001016260163
 c44: y_a9_proc_0 + y_a9_proc_2 - tau = 0
 c45: y_a9_proc_0 <= 0
 c46: y_a9_proc_2 <= 1
 c47: tau <= 0.000973709834
 c48: y_a10_proc_0 + y_a10_proc_1 + y_a10_proc_2 - tau = 0
 c49: y_a10_proc_0 <= 1
 c50: y_a10_proc_1 <= 0
 c51: y_a10_proc_2 <= 0
 c52: tau <= 0.001524390244
 c53: y_a11_proc_0 - tau = 0
 c54: y_a11_proc_0 <= 1
 c55: tau <= 0.001600000000
 c56: y_a12_proc_0 + y_a12_proc_1 - tau = 0
 c57: y_a12_proc_0 <= 1
 c58: y_a12_proc_1 <= 0
 c59: tau <= 0.000992063492
 c60: y_a13_proc_0 + y_a13_proc_2 - tau = 0
 c61: y_a13_proc_0 <= 1
 c62: y_a13_proc_2 <= 0
 c63: tau <= 0.001377410468
 c64: y_a14_proc_0 + y_a14_proc_1 + y_a14_proc_2 - tau = 0
 c65: y_a14_proc_0 <= 0
 c66: y_a14_proc_1 <= 1
 c67: y_a14_proc_2 <= 0
 c68: u_a0 - u_a1 - 1215 y_a1_proc_0 - 575 y_a1_proc_1 - 1035 y_a1_proc_2 >= 0
 c69: u_a1 - u_a2 - 1067 y_a2_proc_0 - 818 y_a2_proc_1 - 1131 y_a2_proc_2 >= 0
 c70: u_a1 - u_a3 - 469 y_a3_proc_1 - 801 y_a3_proc_2 >= 0
 c71: u_a3 - u_a4 - 1142 y_a4_proc_0 - 549 y_a4_proc_1 - 1200 y_a4_proc_2 >= 0
 c72: u_a5 - u_a0 - 1155 y_a0_proc_1 - 785 y_a0_proc_2 >= 0
 c73: u_a0 - u_a6 - 535 y_a6_proc_0 - 904 y_a6_proc_1 - 868 y_a6_proc_2 >= 0
 c74: u_a7 - u_a2 - 1067 y_a2_proc_0 - 818 y_a2_proc_1 - 1131 y_a2_proc_2 >= 0
 c75: u_a8 - u_a1 - 1215 y_a1_proc_0 - 575 y_a1_proc_1 - 1035 y_a1_proc_2 >= 0
 c76: u_a9 - u_a5 - 1169 y_a5_proc_0 - 879 y_a5_proc_1 >= -1
 c77: u_a10 - u_a5 - 1169 y_a5_proc_0 - 879 y_a5_proc_1 >= -1
 c78: u_a11 - u_a5 - 1169 y_a5_proc_0 - 879 y_a5_proc_1 >= -1
 c79: u_a10 - u_a12 - 625 y_a12_proc_0 - 930 y_a12_proc_1 >= -1
 c80: u_a11 - u_a13 - 1008 y_a13_proc_0 - 1191 y_a13_proc_2 >= 0
 c81: u_a14 - u_a13 - 1008 y_a13_proc_0 - 1191 y_a13_proc_2 >= -1
 c82: - 1142 y_a4_proc_0 - 549 y_a4_proc_1 - 1200 y_a4_proc_2 >= -1
 c83: u_a12 - u_a10 - 1027 y_a10_proc_0 - 564 y_a10_proc_1 - 816 y_a10_proc_2
       >= 0
 c84: u_a6 - u_a10 - 1027 y_a10_proc_0 - 564 y_a10_proc_1 - 816 y_a10_proc_2
       >= 0
 c85: u_a6 - u_a14 - 883 y_a14_proc_0 - 726 y_a14_proc_1 - 1246 y_a14_proc_2
       >= 0
 c86: u_a14 - u_a10 - 1027 y_a10_proc_0 - 564 y_a10_proc_1 - 816 y_a10_proc_2
       >= 0
 c87: u_a13 - u_a14 - 883 y_a14_proc_0 - 726 y_a14_proc_1 - 1246 y_a14_proc_2
       >= 0
 c88: u_a14 - u_a4 - 1142 y_a4_proc_0 - 549 y_a4_proc_1 - 1200 y_a4_proc_2 >= 0
 c89: u_a2 - u_a14 - 883 y_a14_proc_0 - 726 y_a14_proc_1 - 1246 y_a14_proc_2
       >= 0
 c90: u_a13 - u_a9 - 1166 y_a9_proc_0 - 984 y_a9_proc_2 >= 0
 c91: u_a11 - u_a7 - 623 y_a7_proc_0 - 722 y_a7_proc_1 - 1119 y_a7_proc_2 >= -1
 c92: u_a7 - u_a11 - 656 y_a11_proc_0 >= 0
 c93: u_a12 - u_a9 - 1166 y_a9_proc_0 - 984 y_a9_proc_2 >= 0
 c94: u_a2 - u_a7 - 623 y_a7_proc_0 - 722 y_a7_proc_1 - 1119 y_a7_proc_2 >= -1
 c95: u_a2 - u_a8 - 870 y_a8_proc_0 - 757 y_a8_proc_1 - 961 y_a8_proc_2 >= -1
 c96: u_a1 - u_a0 - 1155 y_a0_proc_1 >= -3739
 c97: u_a1 - u_a0 - 785 y_a0_proc_2 >= -2493
 c98: u_a0 - u_a1 - 575 y_a1_proc_1 >= -1246
 c99: u_a0 - u_a1 - 1035 y_a1_proc_2 >= 0
 c100: u_a2 - u_a0 - 1155 y_a0_proc_1 >= -3739
 c101: u_a2 - u_a0 - 785 y_a0_proc_2 >= -2493
 c102: u_a0 - u_a2 - 818 y_a2_proc_1 >= -1246
 c103: u_a0 - u_a2 - 1131 y_a2_proc_2 >= 0
 c104: u_a3 - u_a0 - 1155 y_a0_proc_1 >= -332160284
 c105: u_a3 - u_a0 - 785 y_a0_proc_2 >= -332157792
 c106: u_a0 - u_a3 - 469 y_a3_proc_1 >= 332155299
 c107: u_a0 - u_a3 - 801 y_a3_proc_2 >= 332157791
 c108: u_a4 - u_a0 - 1155 y_a0_proc_1 >= -332160284
 c109: u_a4 - u_a0 - 785 y_a0_proc_2 >= -332160284
 c110: u_a0 - u_a4 - 549 y_a4_proc_1 >= 332157791
 c111: u_a0 - u_a4 - 1200 y_a4_proc_2 >= 332157791
 c112: u_a5 - u_a0 - 1155 y_a0_proc_1 >= -4984
 c113: u_a0 - u_a5 - 879 y_a5_proc_1 >= -1
 c114: u_a6 - u_a0 - 1155 y_a0_proc_1 >= -2493
 c115: u_a6 - u_a0 - 785 y_a0_proc_2 >= -1
 c116: u_a0 - u_a6 - 904 y_a6_proc_1 >= -2492
 c117: u_a0 - u_a6 - 868 y_a6_proc_2 >= 0
 c118: u_a7 - u_a0 - 1155 y_a0_proc_1 >= -2492
 c119: u_a7 - u_a0 - 785 y_a0_proc_2 >= 0
 c120: u_a0 - u_a7 - 722 y_a7_proc_1 >= -2493
 c121: u_a0 - u_a7 - 1119 y_a7_proc_2 >= -1
 c122: u_a8 - u_a0 - 1155 y_a0_proc_1 >= -1247
 c123: u_a8 - u_a0 - 785 y_a0_proc_2 >= -1
 c124: u_a0 - u_a8 - 757 y_a8_proc_1 >= -3738
 c125: u_a0 - u_a8 - 961 y_a8_proc_2 >= -2492
 c126: u_a9 - u_a0 - 785 y_a0_proc_2 >= -1
 c127: u_a0 - u_a9 - 984 y_a9_proc_2 >= 0
 c128: u_a10 - u_a0 - 1155 y_a0_proc_1 >= -3739
 c129: u_a10 - u_a0 - 785 y_a0_proc_2 >= -2493
 c130: u_a0 - u_a10 - 564 y_a10_proc_1 >= -1246
 c131: u_a0 - u_a10 - 816 y_a10_proc_2 >= 0
 c132: u_a12 - u_a0 - 1155 y_a0_proc_1 >= -4985
 c133: u_a0 - u_a12 - 930 y_a12_proc_1 >= 0
 c134: u_a13 - u_a0 - 785 y_a0_proc_2 >= -2492
 c135: u_a0 - u_a13 - 1191 y_a13_proc_2 >= -1
 c136: u_a14 - u_a0 - 1155 y_a0_proc_1 >= -2493
 c137: u_a14 - u_a0 - 785 y_a0_proc_2 >= -2493
 c138: u_a0 - u_a14 - 726 y_a14_proc_1 >= 0
 c139: u_a0 - u_a14 - 1246 y_a14_proc_2 >= 0
 c140: u_a2 - u_a1 - 575 y_a1_proc_1 >= -2493
 c141: u_a2 - u_a1 - 1035 y_a1_proc_2 >= -2493
 c142: u_a2 - u_a1 - 1215 y_a1_proc_0 >= -1
 c143: u_a1 - u_a2 - 818 y_a2_proc_1 >= -2492
 c144: u_a1 - u_a2 - 1131 y_a2_proc_2 >= -2492
 c145: u_a1 - u_a2 - 1067 y_a2_proc_0 >= 0
 c146: u_a3 - u_a1 - 575 y_a1_proc_1 >= -332161529
 c147: u_a3 - u_a1 - 1035 y_a1_proc_2 >= -332160283
 c148: u_a1 - u_a3 - 469 y_a3_proc_1 >= 332156544
 c149: u_a1 - u_a3 - 801 y_a3_proc_2 >= 332157790
 c150: u_a4 - u_a1 - 575 y_a1_proc_1 >= -332157792
 c151: u_a4 - u_a1 - 1035 y_a1_proc_2 >= -332159038
 c152: u_a4 - u_a1 - 1215 y_a1_proc_0 >= -332157792
 c153: u_a1 - u_a4 - 549 y_a4_proc_1 >= 332155299
 c154: u_a1 - u_a4 - 1200 y_a4_proc_2 >= 332154053
 c155: u_a1 - u_a4 - 1142 y_a4_proc_0 >= 332155299
 c156: u_a5 - u_a1 - 575 y_a1_proc_1 >= -2492
 c157: u_a5 - u_a1 - 1215 y_a1_proc_0 >= 0
 c158: u_a1 - u_a5 - 879 y_a5_proc_1 >= -2493
 c159: u_a1 - u_a5 - 1169 y_a5_proc_0 >= -1
 c160: u_a6 - u_a1 - 575 y_a1_proc_1 >= -3738
 c161: u_a6 - u_a1 - 1035 y_a1_proc_2 >= -2492
 c162: u_a6 - u_a1 - 1215 y_a1_proc_0 >= -2492
 c163: u_a1 - u_a6 - 904 y_a6_proc_1 >= -1247
 c164: u_a1 - u_a6 - 868 y_a6_proc_2 >= -1
 c165: u_a1 - u_a6 - 535 y_a6_proc_0 >= -1
 c166: u_a7 - u_a1 - 575 y_a1_proc_1 >= -3738
 c167: u_a7 - u_a1 - 1035 y_a1_proc_2 >= -2492
 c168: u_a7 - u_a1 - 1215 y_a1_proc_0 >= -2492
 c169: u_a1 - u_a7 - 722 y_a7_proc_1 >= -1247
 c170: u_a1 - u_a7 - 1119 y_a7_proc_2 >= -1
 c171: u_a1 - u_a7 - 623 y_a7_proc_0 >= -1
 c172: u_a8 - u_a1 - 575 y_a1_proc_1 >= -2492
 c173: u_a8 - u_a1 - 1035 y_a1_proc_2 >= -2492
 c174: u_a8 - u_a1 - 1215 y_a1_proc_0 >= 0
 c175: u_a1 - u_a8 - 757 y_a8_proc_1 >= -2493
 c176: u_a1 - u_a8 - 961 y_a8_proc_2 >= -2493
 c177: u_a1 - u_a8 - 870 y_a8_proc_0 >= -1
 c178: u_a9 - u_a1 - 1035 y_a1_proc_2 >= -2493
 c179: u_a9 - u_a1 - 1215 y_a1_proc_0 >= -2493
 c180: u_a1 - u_a9 - 984 y_a9_proc_2 >= 0
 c181: u_a1 - u_a9 - 1166 y_a9_proc_0 >= 0
 c182: u_a10 - u_a1 - 575 y_a1_proc_1 >= -2493
 c183: u_a10 - u_a1 - 1035 y_a1_proc_2 >= -2493
 c184: u_a10 - u_a1 - 1215 y_a1_proc_0 >= -1
 c185: u_a1 - u_a10 - 564 y_a10_proc_1 >= -2492
 c186: u_a1 - u_a10 - 816 y_a10_proc_2 >= -2492
 c187: u_a1 - u_a10 - 1027 y_a10_proc_0 >= 0
 c188: u_a11 - u_a1 - 1215 y_a1_proc_0 >= 0
 c189: u_a1 - u_a11 - 656 y_a11_proc_0 >= -1
 c190: u_a12 - u_a1 - 575 y_a1_proc_1 >= -2493
 c191: u_a12 - u_a1 - 1215 y_a1_proc_0 >= -1
 c192: u_a1 - u_a12 - 930 y_a12_proc_1 >= -2492
 c193: u_a1 - u_a12 - 625 y_a12_proc_0 >= 0
 c194: u_a13 - u_a1 - 1035 y_a1_proc_2 >= -2492
 c195: u_a13 - u_a1 - 1215 y_a1_proc_0 >= 0
 c196: u_a1 - u_a13 - 1191 y_a13_proc_2 >= -2493
 c197: u_a1 - u_a13 - 1008 y_a13_proc_0 >= -1
 c198: u_a14 - u_a1 - 575 y_a1_proc_1 >= -2493
 c199: u_a14 - u_a1 - 1035 y_a1_proc_2 >= -3739
 c200: u_a14 - u_a1 - 1215 y_a1_proc_0 >= -2493
 c201: u_a1 - u_a14 - 726 y_a14_proc_1 >= 0
 c202: u_a1 - u_a14 - 1246 y_a14_proc_2 >= -1246
 c203: u_a1 - u_a14 - 883 y_a14_proc_0 >= 0
 c204: u_a3 - u_a2 - 818 y_a2_proc_1 >= -332161529
 c205: u_a3 - u_a2 - 1131 y_a2_proc_2 >= -332160283
 c206: u_a2 - u_a3 - 469 y_a3_proc_1 >= 332156544
 c207: u_a2 - u_a3 - 801 y_a3_proc_2 >= 332157790
 c208: u_a4 - u_a2 - 818 y_a2_proc_1 >= -332160283
 c209: u_a4 - u_a2 - 1131 y_a2_proc_2 >= -332161529
 c210: u_a4 - u_a2 - 1067 y_a2_proc_0 >= -332160283
 c211: u_a2 - u_a4 - 549 y_a4_proc_1 >= 332157790
 c212: u_a2 - u_a4 - 1200 y_a4_proc_2 >= 332156544
 c213: u_a2 - u_a4 - 1142 y_a4_proc_0 >= 332157790
 c214: u_a5 - u_a2 - 818 y_a2_proc_1 >= -2492
 c215: u_a5 - u_a2 - 1067 y_a2_proc_0 >= 0
 c216: u_a2 - u_a5 - 879 y_a5_proc_1 >= -2493
 c217: u_a2 - u_a5 - 1169 y_a5_proc_0 >= -1
 c218: u_a6 - u_a2 - 818 y_a2_proc_1 >= -3738
 c219: u_a6 - u_a2 - 1131 y_a2_proc_2 >= -2492
 c220: u_a6 - u_a2 - 1067 y_a2_proc_0 >= -2492
 c221: u_a2 - u_a6 - 904 y_a6_proc_1 >= -1247
 c222: u_a2 - u_a6 - 868 y_a6_proc_2 >= -1
 c223: u_a2 - u_a6 - 535 y_a6_proc_0 >= -1
 c224: u_a7 - u_a2 - 818 y_a2_proc_1 >= -3738
 c225: u_a7 - u_a2 - 1131 y_a2_proc_2 >= -2492
 c226: u_a7 - u_a2 - 1067 y_a2_proc_0 >= -2492
 c227: u_a2 - u_a7 - 722 y_a7_proc_1 >= -1247
 c228: u_a2 - u_a7 - 1119 y_a7_proc_2 >= -1
 c229: u_a2 - u_a7 - 623 y_a7_proc_0 >= -1
 c230: u_a8 - u_a2 - 818 y_a2_proc_1 >= -2492
 c231: u_a8 - u_a2 - 1131 y_a2_proc_2 >= -2492
 c232: u_a8 - u_a2 - 1067 y_a2_proc_0 >= 0
 c233: u_a2 - u_a8 - 757 y_a8_proc_1 >= -2493
 c234: u_a2 - u_a8 - 961 y_a8_proc_2 >= -2493
 c235: u_a2 - u_a8 - 870 y_a8_proc_0 >= -1
 c236: u_a9 - u_a2 - 1131 y_a2_proc_2 >= -2493
 c237: u_a9 - u_a2 - 1067 y_a2_proc_0 >= -2493
 c238: u_a2 - u_a9 - 984 y_a9_proc_2 >= 0
 c239: u_a2 - u_a9 - 1166 y_a9_proc_0 >= 0
 c240: u_a10 - u_a2 - 818 y_a2_proc_1 >= -2493
 c241: u_a10 - u_a2 - 1131 y_a2_proc_2 >= -2493
 c242: u_a10 - u_a2 - 1067 y_a2_proc_0 >= -1
 c243: u_a2 - u_a10 - 564 y_a10_proc_1 >= -2492
 c244: u_a2 - u_a10 - 816 y_a10_proc_2 >= -2492
 c245: u_a2 - u_a10 - 1027 y_a10_proc_0 >= 0
 c246: u_a11 - u_a2 - 1067 y_a2_proc_0 >= 0
 c247: u_a2 - u_a11 - 656 y_a11_proc_0 >= -1
 c248: u_a12 - u_a2 - 818 y_a2_proc_1 >= -2493
 c249: u_a12 - u_a2 - 1067 y_a2_proc_0 >= -1
 c250: u_a2 - u_a12 - 930 y_a12_proc_1 >= -2492
 c251: u_a2 - u_a12 - 625 y_a12_proc_0 >= 0
 c252: u_a13 - u_a2 - 1131 y_a2_proc_2 >= -2492
 c253: u_a13 - u_a2 - 1067 y_a2_proc_0 >= 0
 c254: u_a2 - u_a13 - 1191 y_a13_proc_2 >= -2493
 c255: u_a2 - u_a13 - 1008 y_a13_proc_0 >= -1
 c256: u_a14 - u_a2 - 818 y_a2_proc_1 >= -2492
 c257: u_a14 - u_a2 - 1131 y_a2_proc_2 >= -3738
 c258: u_a14 - u_a2 - 1067 y_a2_proc_0 >= -2492
 c259: u_a2 - u_a14 - 726 y_a14_proc_1 >= -1
 c260: u_a2 - u_a14 - 1246 y_a14_proc_2 >= -1247
 c261: u_a2 - u_a14 - 883 y_a14_proc_0 >= -1
 c262: u_a4 - u_a3 - 469 y_a3_proc_1 >= -2492
 c263: u_a4 - u_a3 - 801 y_a3_proc_2 >= -2492
 c264: u_a3 - u_a4 - 549 y_a4_proc_1 >= -1
 c265: u_a3 - u_a4 - 1200 y_a4_proc_2 >= -1
 c266: u_a5 - u_a3 - 469 y_a3_proc_1 >= 332152807
 c267: u_a3 - u_a5 - 879 y_a5_proc_1 >= -332157792
 c268: u_a6 - u_a3 - 469 y_a3_proc_1 >= 332155299
 c269: u_a6 - u_a3 - 801 y_a3_proc_2 >= 332157791
 c270: u_a3 - u_a6 - 904 y_a6_proc_1 >= -332160284
 c271: u_a3 - u_a6 - 868 y_a6_proc_2 >= -332157792
 c272: u_a7 - u_a3 - 469 y_a3_proc_1 >= 332155299
 c273: u_a7 - u_a3 - 801 y_a3_proc_2 >= 332157791
 c274: u_a3 - u_a7 - 722 y_a7_proc_1 >= -332160284
 c275: u_a3 - u_a7 - 1119 y_a7_proc_2 >= -332157792
 c276: u_a8 - u_a3 - 469 y_a3_proc_1 >= 332154053
 c277: u_a8 - u_a3 - 801 y_a3_proc_2 >= 332155299
 c278: u_a3 - u_a8 - 757 y_a8_proc_1 >= -332159038
 c279: u_a3 - u_a8 - 961 y_a8_proc_2 >= -332157792
 c280: u_a9 - u_a3 - 801 y_a3_proc_2 >= 332157790
 c281: u_a3 - u_a9 - 984 y_a9_proc_2 >= -332157791
 c282: u_a10 - u_a3 - 469 y_a3_proc_1 >= 332154052
 c283: u_a10 - u_a3 - 801 y_a3_proc_2 >= 332155298
 c284: u_a3 - u_a10 - 564 y_a10_proc_1 >= -332159037
 c285: u_a3 - u_a10 - 816 y_a10_proc_2 >= -332157791
 c286: u_a12 - u_a3 - 469 y_a3_proc_1 >= 332152806
 c287: u_a3 - u_a12 - 930 y_a12_proc_1 >= -332157791
 c288: u_a13 - u_a3 - 801 y_a3_proc_2 >= 332157791
 c289: u_a3 - u_a13 - 1191 y_a13_proc_2 >= -332160284
 c290: u_a14 - u_a3 - 469 y_a3_proc_1 >= 332155298
 c291: u_a14 - u_a3 - 801 y_a3_proc_2 >= 332155298
 c292: u_a3 - u_a14 - 726 y_a14_proc_1 >= -332157791
 c293: u_a3 - u_a14 - 1246 y_a14_proc_2 >= -332157791
 c294: u_a5 - u_a4 - 549 y_a4_proc_1 >= 332155299
 c295: u_a5 - u_a4 - 1142 y_a4_proc_0 >= 332155299
 c296: u_a4 - u_a5 - 879 y_a5_proc_1 >= -332157792
 c297: u_a4 - u_a5 - 1169 y_a5_proc_0 >= -332157792
 c298: u_a6 - u_a4 - 549 y_a4_proc_1 >= 332155299
 c299: u_a6 - u_a4 - 1200 y_a4_proc_2 >= 332155299
 c300: u_a6 - u_a4 - 1142 y_a4_proc_0 >= 332154053
 c301: u_a4 - u_a6 - 904 y_a6_proc_1 >= -332157792
 c302: u_a4 - u_a6 - 868 y_a6_proc_2 >= -332157792
 c303: u_a4 - u_a6 - 535 y_a6_proc_0 >= -332159038
 c304: u_a7 - u_a4 - 549 y_a4_proc_1 >= 332155299
 c305: u_a7 - u_a4 - 1200 y_a4_proc_2 >= 332155299
 c306: u_a7 - u_a4 - 1142 y_a4_proc_0 >= 332154053
 c307: u_a4 - u_a7 - 722 y_a7_proc_1 >= -332157792
 c308: u_a4 - u_a7 - 1119 y_a7_proc_2 >= -332157792
 c309: u_a4 - u_a7 - 623 y_a7_proc_0 >= -332159038
 c310: u_a8 - u_a4 - 549 y_a4_proc_1 >= 332157791
 c311: u_a8 - u_a4 - 1200 y_a4_proc_2 >= 332156545
 c312: u_a8 - u_a4 - 1142 y_a4_proc_0 >= 332157791
 c313: u_a4 - u_a8 - 757 y_a8_proc_1 >= -332160284
 c314: u_a4 - u_a8 - 961 y_a8_proc_2 >= -332161530
 c315: u_a4 - u_a8 - 870 y_a8_proc_0 >= -332160284
 c316: u_a9 - u_a4 - 1200 y_a4_proc_2 >= 332155298
 c317: u_a9 - u_a4 - 1142 y_a4_proc_0 >= 332154052
 c318: u_a4 - u_a9 - 984 y_a9_proc_2 >= -332157791
 c319: u_a4 - u_a9 - 1166 y_a9_proc_0 >= -332159037
 c320: u_a10 - u_a4 - 549 y_a4_proc_1 >= 332155298
 c321: u_a10 - u_a4 - 1200 y_a4_proc_2 >= 332154052
 c322: u_a10 - u_a4 - 1142 y_a4_proc_0 >= 332155298
 c323: u_a4 - u_a10 - 564 y_a10_proc_1 >= -332157791
 c324: u_a4 - u_a10 - 816 y_a10_proc_2 >= -332159037
 c325: u_a4 - u_a10 - 1027 y_a10_proc_0 >= -332157791
 c326: u_a11 - u_a4 - 1142 y_a4_proc_0 >= 332155299
 c327: u_a4 - u_a11 - 656 y_a11_proc_0 >= -332157792
 c328: u_a12 - u_a4 - 549 y_a4_proc_1 >= 332157790
 c329: u_a12 - u_a4 - 1142 y_a4_proc_0 >= 332157790
 c330: u_a4 - u_a12 - 930 y_a12_proc_1 >= -332160283
 c331: u_a4 - u_a12 - 625 y_a12_proc_0 >= -332160283
 c332: u_a13 - u_a4 - 1200 y_a4_proc_2 >= 332156545
 c333: u_a13 - u_a4 - 1142 y_a4_proc_0 >= 332157791
 c334: u_a4 - u_a13 - 1191 y_a13_proc_2 >= -332161530
 c335: u_a4 - u_a13 - 1008 y_a13_proc_0 >= -332160284
 c336: u_a14 - u_a4 - 549 y_a4_proc_1 >= 332157790
 c337: u_a14 - u_a4 - 1200 y_a4_proc_2 >= 332155298
 c338: u_a14 - u_a4 - 1142 y_a4_proc_0 >= 332155298
 c339: u_a4 - u_a14 - 726 y_a14_proc_1 >= -332157791
 c340: u_a4 - u_a14 - 1246 y_a14_proc_2 >= -332160283
 c341: u_a4 - u_a14 - 883 y_a14_proc_0 >= -332160283
 c342: u_a6 - u_a5 - 879 y_a5_proc_1 >= -3739
 c343: u_a6 - u_a5 - 1169 y_a5_proc_0 >= -2493
 c344: u_a5 - u_a6 - 904 y_a6_proc_1 >= -1246
 c345: u_a5 - u_a6 - 535 y_a6_proc_0 >= 0
 c346: u_a7 - u_a5 - 879 y_a5_proc_1 >= -3738
 c347: u_a7 - u_a5 - 1169 y_a5_proc_0 >= -2492
 c348: u_a5 - u_a7 - 722 y_a7_proc_1 >= -1247
 c349: u_a5 - u_a7 - 623 y_a7_proc_0 >= -1
 c350: u_a8 - u_a5 - 879 y_a5_proc_1 >= -2493
 c351: u_a8 - u_a5 - 1169 y_a5_proc_0 >= -1
 c352: u_a5 - u_a8 - 757 y_a8_proc_1 >= -2492
 c353: u_a5 - u_a8 - 870 y_a8_proc_0 >= 0
 c354: u_a9 - u_a5 - 1169 y_a5_proc_0 >= -1
 c355: u_a5 - u_a9 - 1166 y_a9_proc_0 >= -2492
 c356: u_a10 - u_a5 - 879 y_a5_proc_1 >= -2493
 c357: u_a10 - u_a5 - 1169 y_a5_proc_0 >= -1
 c358: u_a5 - u_a10 - 564 y_a10_proc_1 >= -2492
 c359: u_a5 - u_a10 - 1027 y_a10_proc_0 >= 0
 c360: u_a11 - u_a5 - 1169 y_a5_proc_0 >= 0
 c361: u_a5 - u_a11 - 656 y_a11_proc_0 >= -1
 c362: u_a12 - u_a5 - 879 y_a5_proc_1 >= -2493
 c363: u_a12 - u_a5 - 1169 y_a5_proc_0 >= -1
 c364: u_a5 - u_a12 - 930 y_a12_proc_1 >= -2492
 c365: u_a5 - u_a12 - 625 y_a12_proc_0 >= 0
 c366: u_a13 - u_a5 - 1169 y_a5_proc_0 >= 0
 c367: u_a5 - u_a13 - 1008 y_a13_proc_0 >= -1
 c368: u_a14 - u_a5 - 879 y_a5_proc_1 >= -2493
 c369: u_a14 - u_a5 - 1169 y_a5_proc_0 >= -2493
 c370: u_a5 - u_a14 - 726 y_a14_proc_1 >= 0
 c371: u_a5 - u_a14 - 883 y_a14_proc_0 >= 0
 c372: u_a7 - u_a6 - 904 y_a6_proc_1 >= -2492
 c373: u_a7 - u_a6 - 868 y_a6_proc_2 >= 0
 c374: u_a7 - u_a6 - 535 y_a6_proc_0 >= -2492
 c375: u_a6 - u_a7 - 722 y_a7_proc_1 >= -2493
 c376: u_a6 - u_a7 - 1119 y_a7_proc_2 >= -1
 c377: u_a6 - u_a7 - 623 y_a7_proc_0 >= -2493
 c378: u_a8 - u_a6 - 904 y_a6_proc_1 >= -3739
 c379: u_a8 - u_a6 - 868 y_a6_proc_2 >= -2493
 c380: u_a8 - u_a6 - 535 y_a6_proc_0 >= -2493
 c381: u_a6 - u_a8 - 757 y_a8_proc_1 >= -1246
 c382: u_a6 - u_a8 - 961 y_a8_proc_2 >= 0
 c383: u_a6 - u_a8 - 870 y_a8_proc_0 >= 0
 c384: u_a9 - u_a6 - 868 y_a6_proc_2 >= -1
 c385: u_a9 - u_a6 - 535 y_a6_proc_0 >= -2493
 c386: u_a6 - u_a9 - 984 y_a9_proc_2 >= 0
 c387: u_a6 - u_a9 - 1166 y_a9_proc_0 >= -2492
 c388: u_a10 - u_a6 - 904 y_a6_proc_1 >= -3739
 c389: u_a10 - u_a6 - 868 y_a6_proc_2 >= -2493
 c390: u_a10 - u_a6 - 535 y_a6_proc_0 >= -2493
 c391: u_a6 - u_a10 - 564 y_a10_proc_1 >= -1246
 c392: u_a6 - u_a10 - 816 y_a10_proc_2 >= 0
 c393: u_a6 - u_a10 - 1027 y_a10_proc_0 >= 0
 c394: u_a11 - u_a6 - 535 y_a6_proc_0 >= -2492
 c395: u_a6 - u_a11 - 656 y_a11_proc_0 >= -1
 c396: u_a12 - u_a6 - 904 y_a6_proc_1 >= -3739
 c397: u_a12 - u_a6 - 535 y_a6_proc_0 >= -2493
 c398: u_a6 - u_a12 - 930 y_a12_proc_1 >= -1246
 c399: u_a6 - u_a12 - 625 y_a12_proc_0 >= 0
 c400: u_a13 - u_a6 - 868 y_a6_proc_2 >= -2492
 c401: u_a13 - u_a6 - 535 y_a6_proc_0 >= -2492
 c402: u_a6 - u_a13 - 1191 y_a13_proc_2 >= -1
 c403: u_a6 - u_a13 - 1008 y_a13_proc_0 >= -1
 c404: u_a14 - u_a6 - 904 y_a6_proc_1 >= -2493
 c405: u_a14 - u_a6 - 868 y_a6_proc_2 >= -2493
 c406: u_a14 - u_a6 - 535 y_a6_proc_0 >= -3739
 c407: u_a6 - u_a14 - 726 y_a14_proc_1 >= 0
 c408: u_a6 - u_a14 - 1246 y_a14_proc_2 >= 0
 c409: u_a6 - u_a14 - 883 y_a14_proc_0 >= -1246
 c410: u_a8 - u_a7 - 722 y_a7_proc_1 >= -3739
 c411: u_a8 - u_a7 - 1119 y_a7_proc_2 >= -2493
 c412: u_a8 - u_a7 - 623 y_a7_proc_0 >= -2493
 c413: u_a7 - u_a8 - 757 y_a8_proc_1 >= -1246
 c414: u_a7 - u_a8 - 961 y_a8_proc_2 >= 0
 c415: u_a7 - u_a8 - 870 y_a8_proc_0 >= 0
 c416: u_a9 - u_a7 - 1119 y_a7_proc_2 >= -2
 c417: u_a9 - u_a7 - 623 y_a7_proc_0 >= -2494
 c418: u_a7 - u_a9 - 984 y_a9_proc_2 >= 1
 c419: u_a7 - u_a9 - 1166 y_a9_proc_0 >= -2491
 c420: u_a10 - u_a7 - 722 y_a7_proc_1 >= -3740
 c421: u_a10 - u_a7 - 1119 y_a7_proc_2 >= -2494
 c422: u_a10 - u_a7 - 623 y_a7_proc_0 >= -2494
 c423: u_a7 - u_a10 - 564 y_a10_proc_1 >= -1245
 c424: u_a7 - u_a10 - 816 y_a10_proc_2 >= 1
 c425: u_a7 - u_a10 - 1027 y_a10_proc_0 >= 1
 c426: u_a11 - u_a7 - 623 y_a7_proc_0 >= -2493
 c427: u_a7 - u_a11 - 656 y_a11_proc_0 >= 0
 c428: u_a12 - u_a7 - 722 y_a7_proc_1 >= -3740
 c429: u_a12 - u_a7 - 623 y_a7_proc_0 >= -2494
 c430: u_a7 - u_a12 - 930 y_a12_proc_1 >= -1245
 c431: u_a7 - u_a12 - 625 y_a12_proc_0 >= 1
 c432: u_a13 - u_a7 - 1119 y_a7_proc_2 >= -1
 c433: u_a13 - u_a7 - 623 y_a7_proc_0 >= -1
 c434: u_a7 - u_a13 - 1191 y_a13_proc_2 >= -2492
 c435: u_a7 - u_a13 - 1008 y_a13_proc_0 >= -2492
 c436: u_a14 - u_a7 - 722 y_a7_proc_1 >= -2
 c437: u_a14 - u_a7 - 1119 y_a7_proc_2 >= -2
 c438: u_a14 - u_a7 - 623 y_a7_proc_0 >= -1248
 c439: u_a7 - u_a14 - 726 y_a14_proc_1 >= -2491
 c440: u_a7 - u_a14 - 1246 y_a14_proc_2 >= -2491
 c441: u_a7 - u_a14 - 883 y_a14_proc_0 >= -3737
 c442: u_a9 - u_a8 - 961 y_a8_proc_2 >= -2493
 c443: u_a9 - u_a8 - 870 y_a8_proc_0 >= -2493
 c444: u_a8 - u_a9 - 984 y_a9_proc_2 >= 0
 c445: u_a8 - u_a9 - 1166 y_a9_proc_0 >= 0
 c446: u_a10 - u_a8 - 757 y_a8_proc_1 >= -2493
 c447: u_a10 - u_a8 - 961 y_a8_proc_2 >= -2493
 c448: u_a10 - u_a8 - 870 y_a8_proc_0 >= -1
 c449: u_a8 - u_a10 - 564 y_a10_proc_1 >= -2492
 c450: u_a8 - u_a10 - 816 y_a10_proc_2 >= -2492
 c451: u_a8 - u_a10 - 1027 y_a10_proc_0 >= 0
 c452: u_a11 - u_a8 - 870 y_a8_proc_0 >= 0
 c453: u_a8 - u_a11 - 656 y_a11_proc_0 >= -1
 c454: u_a12 - u_a8 - 757 y_a8_proc_1 >= -2493
 c455: u_a12 - u_a8 - 870 y_a8_proc_0 >= -1
 c456: u_a8 - u_a12 - 930 y_a12_proc_1 >= -2492
 c457: u_a8 - u_a12 - 625 y_a12_proc_0 >= 0
 c458: u_a13 - u_a8 - 961 y_a8_proc_2 >= -2492
 c459: u_a13 - u_a8 - 870 y_a8_proc_0 >= 0
 c460: u_a8 - u_a13 - 1191 y_a13_proc_2 >= -2493
 c461: u_a8 - u_a13 - 1008 y_a13_proc_0 >= -1
 c462: u_a14 - u_a8 - 757 y_a8_proc_1 >= -2493
 c463: u_a14 - u_a8 - 961 y_a8_proc_2 >= -3739
 c464: u_a14 - u_a8 - 870 y_a8_proc_0 >= -2493
 c465: u_a8 - u_a14 - 726 y_a14_proc_1 >= 0
 c466: u_a8 - u_a14 - 1246 y_a14_proc_2 >= -1246
 c467: u_a8 - u_a14 - 883 y_a14_proc_0 >= 0
 c468: u_a10 - u_a9 - 984 y_a9_proc_2 >= -2492
 c469: u_a10 - u_a9 - 1166 y_a9_proc_0 >= -2492
 c470: u_a9 - u_a10 - 816 y_a10_proc_2 >= -1
 c471: u_a9 - u_a10 - 1027 y_a10_proc_0 >= -1
 c472: u_a11 - u_a9 - 1166 y_a9_proc_0 >= -2491
 c473: u_a9 - u_a11 - 656 y_a11_proc_0 >= -2
 c474: u_a12 - u_a9 - 1166 y_a9_proc_0 >= -2492
 c475: u_a9 - u_a12 - 625 y_a12_proc_0 >= -1
 c476: u_a13 - u_a9 - 984 y_a9_proc_2 >= -2491
 c477: u_a13 - u_a9 - 1166 y_a9_proc_0 >= -2491
 c478: u_a9 - u_a13 - 1191 y_a13_proc_2 >= -2
 c479: u_a9 - u_a13 - 1008 y_a13_proc_0 >= -2
 c480: u_a14 - u_a9 - 984 y_a9_proc_2 >= -2492
 c481: u_a14 - u_a9 - 1166 y_a9_proc_0 >= -3738
 c482: u_a9 - u_a14 - 1246 y_a14_proc_2 >= -1
 c483: u_a9 - u_a14 - 883 y_a14_proc_0 >= -1247
 c484: u_a11 - u_a10 - 1027 y_a10_proc_0 >= 1
 c485: u_a10 - u_a11 - 656 y_a11_proc_0 >= -2
 c486: u_a12 - u_a10 - 564 y_a10_proc_1 >= -2492
 c487: u_a12 - u_a10 - 1027 y_a10_proc_0 >= 0
 c488: u_a10 - u_a12 - 930 y_a12_proc_1 >= -2493
 c489: u_a10 - u_a12 - 625 y_a12_proc_0 >= -1
 c490: u_a13 - u_a10 - 816 y_a10_proc_2 >= -2491
 c491: u_a13 - u_a10 - 1027 y_a10_proc_0 >= 1
 c492: u_a10 - u_a13 - 1191 y_a13_proc_2 >= -2494
 c493: u_a10 - u_a13 - 1008 y_a13_proc_0 >= -2
 c494: u_a14 - u_a10 - 564 y_a10_proc_1 >= -2492
 c495: u_a14 - u_a10 - 816 y_a10_proc_2 >= -3738
 c496: u_a14 - u_a10 - 1027 y_a10_proc_0 >= -2492
 c497: u_a10 - u_a14 - 726 y_a14_proc_1 >= -1
 c498: u_a10 - u_a14 - 1246 y_a14_proc_2 >= -1247
 c499: u_a10 - u_a14 - 883 y_a14_proc_0 >= -1
 c500: u_a12 - u_a11 - 656 y_a11_proc_0 >= -2
 c501: u_a11 - u_a12 - 625 y_a12_proc_0 >= 1
 c502: u_a13 - u_a11 - 656 y_a11_proc_0 >= -1
 c503: u_a11 - u_a13 - 1008 y_a13_proc_0 >= 0
 c504: u_a14 - u_a11 - 656 y_a11_proc_0 >= -2493
 c505: u_a11 - u_a14 - 883 y_a14_proc_0 >= 0
 c506: u_a13 - u_a12 - 625 y_a12_proc_0 >= 1
 c507: u_a12 - u_a13 - 1008 y_a13_proc_0 >= -2
 c508: u_a14 - u_a12 - 930 y_a12_proc_1 >= -2492
 c509: u_a14 - u_a12 - 625 y_a12_proc_0 >= -2492
 c510: u_a12 - u_a14 - 726 y_a14_proc_1 >= -1
 c511: u_a12 - u_a14 - 883 y_a14_proc_0 >= -1
 c512: u_a14 - u_a13 - 1191 y_a13_proc_2 >= -3739
 c513: u_a14 - u_a13 - 1008 y_a13_proc_0 >= -2493
 c514: u_a13 - u_a14 - 1246 y_a14_proc_2 >= -1246
 c515: u_a13 - u_a14 - 883 y_a14_proc_0 >= 0

Bounds
End
